# Cost: 797

# Tail Head Net
  6   5 1
  7   6 1
  8   7 1
  9   8 1
 10   9 1
 11  10 1
 12  11 1
 13  12 1
 14  13 1
 15  14 1
 16  15 1
 17  16 1
 18  17 1
 19  18 1
 20  19 1
 21  20 1
 22  21 1
 23  22 1
 24  23 1
 25  24 1
 26  25 1
 27  26 1
 28  27 1
 29  28 1
 30  29 1
 31  30 1
 81  31 1
131  81 1
181 131 1
231 181 1
281 231 1
331 281 1
381 331 1
431 381 1
481 431 1
531 481 1
581 531 1
631 581 1
681 631 1
731 681 1
781 731 1
831 781 1
881 831 1
931 881 1
981 931 1
1031 981 1
1031 1032 1
1032 1033 1
1033 1034 1
1034 1035 1
1035 1036 1
1036 1037 1
1037 1038 1
1038 1039 1
1039 1040 1
1040 1041 1
1041 1042 1
1042 1043 1
1043 1044 1
1044 1045 1
1045 1046 1
1046 1047 1
1047 1048 1
1048 1049 1
1049 1050 1
1081 1031 1
1131 1081 1
1181 1131 1
1231 1181 1
1281 1231 1
1331 1281 1
1381 1331 1
1431 1381 1
1481 1431 1
1531 1481 1
1581 1531 1
1631 1581 1
1681 1631 1
1731 1681 1
1781 1731 1
1831 1781 1
1881 1831 1
1931 1881 1
1931 1932 1
1932 1933 1
1933 1934 1
1934 1935 1
1935 1936 1
1936 1937 1
1937 1938 1
1938 1939 1
1939 1940 1
1940 1941 1
1941 1942 1
1942 1943 1
1943 1944 1
1944 1945 1
1945 1946 1
1946 1947 1
1947 1948 1
1948 1949 1
1949 1950 1
1981 1931 1
2031 1981 1
2081 2031 1
2131 2081 1
2181 2131 1
2231 2181 1
2281 2231 1
2331 2281 1
2381 2331 1
2431 2381 1
2481 2431 1
101  51 2
151 101 2
201 151 2
251 201 2
301 251 2
351 301 2
401 351 2
451 401 2
501 451 2
501 551 2
502 501 2
547 3047 2
548 547 2
549 548 2
550 549 2
551 601 2
3002 502 2
3003 3002 2
3004 3003 2
3005 3004 2
3006 3005 2
3007 3006 2
3008 3007 2
3009 3008 2
3010 3009 2
3011 3010 2
3012 3011 2
3013 3012 2
3014 3013 2
3015 3014 2
3016 3015 2
3017 3016 2
3018 3017 2
3019 3018 2
3020 3019 2
3021 3020 2
3022 3021 2
3023 3022 2
3024 3023 2
3025 3024 2
3026 3025 2
3027 3026 2
3028 3027 2
3029 3028 2
3030 3029 2
3031 3030 2
3032 3031 2
3033 3032 2
3034 3033 2
3035 3034 2
3036 3035 2
3037 3036 2
3038 3037 2
3039 3038 2
3040 3039 2
3041 3040 2
3042 3041 2
3043 3042 2
3044 3043 2
3045 3044 2
3046 3045 2
3047 3046 2
601 651 2
651 701 2
1401 1402 3
1401 1451 3
1402 1403 3
1403 1404 3
1404 1405 3
1405 1406 3
1406 1407 3
1407 1408 3
1408 1409 3
1409 1410 3
1410 1411 3
1411 1412 3
1412 1413 3
1413 1414 3
1414 1415 3
1415 1416 3
1416 1417 3
1417 1418 3
1418 1419 3
1419 1420 3
1420 1421 3
1421 1422 3
1422 1423 3
1423 1424 3
1424 1425 3
1425 1426 3
1426 1427 3
1427 1428 3
1428 1429 3
1429 1430 3
1429 1479 3
1430 3930 3
1432 1482 3
1451 1501 3
1479 1529 3
3930 3931 3
3931 3932 3
1482 1483 3
3932 1432 3
1483 1484 3
1484 1485 3
1485 1486 3
1486 1487 3
1487 1488 3
1488 1489 3
1489 1490 3
1490 1491 3
1491 1492 3
1492 1493 3
1493 1494 3
1494 1495 3
1495 1496 3
1496 1497 3
1497 1498 3
1498 1499 3
1499 1500 3
1501 1551 3
1529 1579 3
1551 1601 3
1579 1629 3
1601 1651 3
1629 1679 3
1651 1701 3
1679 1729 3
1701 1751 3
1729 1779 3
1751 1801 3
1779 1829 3
1801 1851 3
1829 1879 3
1879 1929 3
1929 1979 3
1979 2029 3
2029 2079 3
2079 2129 3
2129 2179 3
2179 2229 3
2229 2279 3
2279 2329 3
2329 2379 3
2379 2429 3
2429 2479 3
 32  33 4
 33  34 4
 34  35 4
 35  36 4
 36  37 4
 37  38 4
 38  39 4
 39  40 4
 40  90 4
 90 140 4
140 190 4
190 191 4
191 241 4
241 242 4
242 243 4
243 244 4
244 245 4
245 295 4
295 345 4
345 346 4
346 396 4
396 446 4
446 496 4
496 546 4
546 596 4
596 597 4
597 598 4
598 648 4
648 698 4
698 748 4
748 798 4
798 799 4
799 849 4
849 850 4
850 900 4
900 950 4
 53   3 5
 54  53 5
104  54 5
154 104 5
204 154 5
254 204 5
304 254 5
354 304 5
404 354 5
454 404 5
504 454 5
554 504 5
604 554 5
654 604 5
704 654 5
3204 704 5
3254 3204 5
3304 3254 5
3354 3304 5
3404 3354 5
3454 3404 5
3504 3454 5
3554 3504 5
3604 3554 5
3654 3604 5
3704 3654 5
3705 3704 5
3706 3705 5
3756 3706 5
3806 3756 5
3856 3806 5
3906 3856 5
3956 3906 5
4006 3956 5
4056 4006 5
4106 4056 5
4156 4106 5
4206 4156 5
4256 4206 5
4306 4256 5
4356 4306 5
4406 4356 5
4456 4406 5
4506 4456 5
4556 4506 5
4606 4556 5
4656 4606 5
4706 4656 5
2300 2250 5
4756 4706 5
2350 2300 5
4806 4756 5
2394 2395 5
2395 2396 5
2396 2397 5
2397 2398 5
2398 2399 5
2399 2400 5
2400 2350 5
4856 4806 5
2435 2436 5
2436 2437 5
2437 2438 5
2438 2439 5
2439 2440 5
2440 2441 5
2441 2442 5
2442 2443 5
2443 2444 5
2444 2394 5
2456 4956 5
4906 4856 5
2484 2485 5
2485 2435 5
4956 4906 5
4956 4957 5
4957 4958 5
4958 4959 5
4959 4960 5
4960 4961 5
4961 4962 5
4962 4963 5
4963 4964 5
4964 4965 5
4965 4966 5
4966 4967 5
4967 4968 5
4968 4969 5
4969 4970 5
4970 4971 5
4971 4972 5
4972 4973 5
4973 4974 5
4974 2474 5
4974 4975 5
4975 4976 5
4976 4977 5
4977 4978 5
4978 4979 5
4979 4980 5
4980 4981 5
4981 4982 5
4982 4983 5
4983 4984 5
4984 2484 5
2423 2473 6
2424 2423 6
2425 2424 6
2426 2425 6
2472 2471 6
2473 2472 6
2476 2426 6
1000 3500 7
3500 3550 7
3550 3600 7
3600 3650 7
3650 3700 7
3700 3750 7
3747 3797 7
3748 3747 7
3749 3748 7
3750 3749 7
3794 3844 7
3795 3794 7
3796 3795 7
3797 3796 7
3828 3878 7
3829 3828 7
3830 3829 7
3831 3830 7
3832 3831 7
3833 3832 7
3834 3833 7
3835 3834 7
3836 3835 7
3837 3836 7
3838 3837 7
3839 3838 7
3840 3839 7
3841 3840 7
3842 3841 7
3843 3842 7
3844 3843 7
3878 3928 7
3928 3978 7
3978 4028 7
4024 4074 7
4025 4024 7
4026 4025 7
4027 4026 7
4028 4027 7
4074 4124 7
4124 4174 7
4174 4224 7
4223 4273 7
4224 4223 7
4272 4322 7
4273 4272 7
4322 4372 7
4372 4422 7
4422 4472 7
4470 4520 7
4471 4470 7
4472 4471 7
4520 4570 7
4570 4620 7
4620 4670 7
4670 4720 7
4718 4768 7
4719 4718 7
4720 4719 7
4768 4818 7
4815 4865 7
4816 4815 7
4817 4816 7
4818 4817 7
2413 2463 7
4865 4915 7
4913 2413 7
4914 4913 7
4915 4914 7
 97  47 8
147  97 8
197 147 8
247 197 8
297 247 8
347 297 8
397 347 8
2897 397 8
2947 2897 8
2997 2947 8
2412 4912 8
2462 2412 8
4912 7412 8
5497 2997 8
5547 5497 8
5597 5547 8
5647 5597 8
5697 5647 8
5747 5697 8
5797 5747 8
5847 5797 8
5897 5847 8
5947 5897 8
5997 5947 8
6047 5997 8
6097 6047 8
6147 6097 8
6197 6147 8
6247 6197 8
6297 6247 8
6347 6297 8
6397 6347 8
6447 6397 8
6497 6447 8
6547 6497 8
6597 6547 8
6647 6597 8
6697 6647 8
6747 6697 8
6797 6747 8
6847 6797 8
6897 6847 8
6947 6897 8
6997 6947 8
7047 6997 8
7097 7047 8
7147 7097 8
7197 7147 8
7247 7197 8
7297 7247 8
7347 7297 8
7397 7347 8
7412 7413 8
7413 7414 8
7414 7415 8
7415 7416 8
7416 7417 8
7417 7418 8
7418 7419 8
7419 7420 8
7420 7421 8
7421 7422 8
7422 7423 8
7423 7424 8
7424 7425 8
7425 7426 8
7426 7427 8
7427 7428 8
7428 7429 8
7429 7430 8
7430 7431 8
7431 7432 8
7432 7433 8
7433 7434 8
7434 7435 8
7435 7436 8
7436 7437 8
7437 7438 8
7438 7439 8
7439 7440 8
7440 7441 8
7441 7442 8
7442 7443 8
7443 7444 8
7444 7445 8
7445 7446 8
7446 7447 8
7447 7397 8
1450 1400 9
2361 2411 10
2362 2361 10
2363 2362 10
2364 2363 10
2365 2364 10
2366 2365 10
2367 2366 10
2368 2367 10
2405 2455 10
2406 2405 10
2407 2406 10
2408 2407 10
2409 2408 10
2410 2409 10
2411 2410 10
4868 2368 10
2430 4930 10
2455 2454 10
4918 4868 10
4919 4918 10
4920 4919 10
4921 4920 10
4922 4921 10
4923 4922 10
4924 4923 10
4925 4924 10
4926 4925 10
4927 4926 10
4928 4927 10
4929 4928 10
2480 2430 10
4930 4929 10
4050 1550 11
4100 4050 11
4150 4100 11
4200 4150 11
4231 4232 11
4232 4233 11
4233 4234 11
4234 4235 11
4235 4236 11
4236 4237 11
4237 4238 11
4238 4239 11
4239 4240 11
4240 4241 11
4241 4242 11
4242 4243 11
4243 4244 11
4244 4245 11
4245 4246 11
4246 4247 11
4247 4248 11
4248 4249 11
4249 4250 11
4250 4200 11
4280 4281 11
4281 4231 11
4329 4330 11
4330 4280 11
4379 4329 11
4429 4379 11
4476 4477 11
4477 4478 11
4478 4479 11
4479 4429 11
4525 4526 11
4526 4476 11
4574 4575 11
4575 4525 11
4623 4624 11
4624 4574 11
4672 4673 11
4673 4623 11
2269 4769 11
4722 4672 11
2319 2269 11
4769 4770 11
4770 4771 11
4771 4772 11
4772 4722 11
2369 2319 11
2414 2415 11
2415 2416 11
2416 2417 11
2417 2418 11
2418 2419 11
2419 2369 11
2464 2414 11
2504 2554 12
2505 2504 12
2506 2505 12
2507 2506 12
2508 2507 12
2509 2508 12
2510 2509 12
2511 2510 12
2512 2511 12
2513 2512 12
2514 2513 12
2515 2514 12
2516 2515 12
2517 2516 12
2518 2517 12
2519 2518 12
2520 2519 12
2521 2520 12
2522 2521 12
2523 2522 12
2524 2523 12
2525 2524 12
2526 2525 12
2527 2526 12
2528 2527 12
2529 2528 12
2530 2529 12
2531 2530 12
2532 2531 12
2533 2532 12
2534 2533 12
2535 2534 12
2536 2535 12
2537 2536 12
2538 2537 12
2539 2538 12
 41 2541 12
2540 2539 12
 42  41 12
2541 2540 12
 43  42 12
 44  43 12
 45  44 12
2552 2602 12
2553 2552 12
2554 2553 12
2602 2652 12
2652 2702 12
2701 2751 12
2702 2701 12
2751 2801 12
2801 2851 12
2851 2901 12
2901 2951 12
2951 3001 12
3001 3051 12
3051 3101 12
3101 3151 12
3151 3201 12
3201 3251 12
3251 3301 12
851 901 12
3301 3351 12
3351 851 12
3601 1101 13
3602 3601 13
4896 7396 13
4897 4896 13
2449 4949 13
2450 2449 13
4947 4897 13
4948 4947 13
4949 4948 13
6102 3602 13
6103 6102 13
6153 6103 13
6154 6153 13
6155 6154 13
6156 6155 13
6157 6156 13
6158 6157 13
6159 6158 13
6160 6159 13
6161 6160 13
6211 6161 13
6212 6211 13
6213 6212 13
6214 6213 13
6264 6214 13
6265 6264 13
6266 6265 13
6267 6266 13
6268 6267 13
6269 6268 13
6319 6269 13
6320 6319 13
6321 6320 13
6322 6321 13
6323 6322 13
6324 6323 13
6325 6324 13
6326 6325 13
6327 6326 13
6328 6327 13
6378 6328 13
6428 6378 13
6478 6428 13
6479 6478 13
6480 6479 13
6530 6480 13
6531 6530 13
6532 6531 13
6533 6532 13
6534 6533 13
6535 6534 13
6536 6535 13
6537 6536 13
6538 6537 13
6539 6538 13
6540 6539 13
6541 6540 13
6591 6541 13
6592 6591 13
6642 6592 13
6692 6642 13
6742 6692 13
6792 6742 13
6793 6792 13
6794 6793 13
6844 6794 13
6894 6844 13
6944 6894 13
6994 6944 13
7044 6994 13
7094 7044 13
7144 7094 13
7194 7144 13
7244 7194 13
7245 7244 13
7246 7245 13
7296 7246 13
7346 7296 13
7396 7346 13
